nvertices = 9;
owners = [0,0,0,0,0,0,0,0,0];
priors = [1,0,0,0,0,0,0,0,0];
nedges = 18;
sources = [0,0,1,1,2,2,3,3,4,4,5,5,6,6,7,7,8,8];
targets = [1,6,2,7,0,8,0,4,1,5,2,3,3,7,4,8,5,6];
weights = [17,-14,-1,6,22,-30,1,19,-17,27,8,-24,-17,22,-4,-20,23,-9];
sinks = {}